#! ADC/6-31G** on H2O

memory 250 mb

molecule he {
    He
    symmetry c1
}

set {
    reference rhf
    basis 6-311G
    guess core
    roots_per_irrep [20]
    print 5
}

energy('scf')
